NAME: cities_5_2
TYPE: TSP
COMMENT: Generated from CSV
DIMENSION: 5
EDGE_WEIGHT_TYPE: EUC_2D
NODE_COORD_SECTION
1 4.854861397718624 59.09599304674448
2 1.6686480045465355 15.153974787524616
3 75.29677331871616 17.707527923671805
4 18.677938355280062 20.59262853496365
5 66.66780010155698 79.00713021344565
EOF
